WARNING: for repeatability, setting FPU to use double precision
============================[ Problem Statistics ]=============================
|                                                                             |
|  Number of variables:         10240                                         |
|  Number of clauses:         3306240                                         |
|  Parse time:                   0.65 s                                       |
|                                                                             |
c ============================[ Search Statistics ]==============================
c | Conflicts |          ORIGINAL         |          LEARNT          | Progress |
c |           |    Vars  Clauses Literals |    Limit  Clauses Lit/Cl |          |
c ===============================================================================
c Switched to VSIDS.
c Switched to LRB.
c Switched to VSIDS.
c Switched to LRB.
c Switched to VSIDS.
c Switched to LRB.
c Switched to VSIDS.
c Switched to LRB.
c Switched to VSIDS.
c Switched to LRB.
c Switched to VSIDS.
c Switched to LRB.
c Switched to VSIDS.
c Switched to LRB.
c Switched to VSIDS.
c Switched to LRB.
c Switched to VSIDS.
c Switched to LRB.
c Switched to VSIDS.
c Switched to LRB.
c Switched to VSIDS.
c Switched to LRB.
c Switched to VSIDS.
c Switched to LRB.
c ===============================================================================
restarts                  : 176314
conflicts                 : 51214108       (15079 /sec)
decisions                 : 521022731      (0.00 % random) (153409 /sec)
propagations              : 2689138297     (791783 /sec)
conflict literals         : 8431100888     (18.82 % deleted)

conflicts w/ DIP found    : 16133595       (31.50 % of conflicts)
conflicts w/ dangerous DIP: 0              (0.00 % of conflicts)
conflicts w/ DIP-learning : 718426         (1.40 % of conflicts)
decisions on ext vars     : 32818891       (6.30 % of decisions)
total ext vars            : 7966        
tried delete ext vars     : 9           
deleted ext vars          : 9           
max ext vars              : 7957        

Memory used               : 2144.00 MB
CPU time                  : 3396.31 s
DIP computation time      : 185.557 s (5.46 % of total time)
ER_sel time               : 67.856 s
ER_add time               : 0.041891 s
ER_delC time              : 0 s
ER_delV time              : 2.6e-05 s
ER_sub time               : 78.1752 s
ER_stat time              : 0 s

INDETERMINATE
